Tamkin_Work/Encoding/CplexEncoding/out.lp
Minimize
+ 20 x1_2 + 9 x1_3 + 12 x1_4 
+ 17 x2_1 + 20 x2_3 + 20 x2_4 
+ 10 x3_1 + 13 x3_2 + 8 x3_4 
+ 11 x4_1 + 14 x4_2 + 11 x4_3 

Subject To
+ x1_2 + x1_3 + x1_4  = 1
+ x2_1 + x2_3 + x2_4  = 1
+ x3_1 + x3_2 + x3_4  = 1
+ x4_1 + x4_2 + x4_3  = 1

+ x2_1 + x3_1 + x4_1  = 1
+ x1_2 + x3_2 + x4_2  = 1
+ x1_3 + x2_3 + x4_3  = 1
+ x1_4 + x2_4 + x3_4  = 1

u2 - u3 + 3 x2_3 <= 2
u2 - u4 + 3 x2_4 <= 2

u3 - u2 + 3 x3_2 <= 2
u3 - u4 + 3 x3_4 <= 2

u4 - u2 + 3 x4_2 <= 2
u4 - u3 + 3 x4_3 <= 2

Bounds
2 <= u2 <= 4
2 <= u3 <= 4
2 <= u4 <= 4

Binary
x1_2
x1_3
x1_4
x2_1
x2_3
x2_4
x3_1
x3_2
x3_4
x4_1
x4_2
x4_3
End