Tamkin's Work/SMT-Encoding/SMTInterpol-Solver/out.txt
success
success
success
success
success
success
success
success
success
success
success
success
success
success
success
success
success
success
success
success
success
success
success
success
success
sat
(model 
  (define-fun n_1 () Int
    16)
  (define-fun n_2 () Int
    4)
  (define-fun n_3 () Int
    5)
  (define-fun n_4 () Int
    17)
  (define-fun n_5 () Int
    9)
  (define-fun n_6 () Int
    1)
  (define-fun n_7 () Int
    14)
  (define-fun n_8 () Int
    6)
  (define-fun n_9 () Int
    10)
  (define-fun cost ((@0 Int)(@1 Int)) Int
    (ite (and (= @0 8) (= @1 12)) 12
    (ite (and (= @0 1) (= @1 2)) 13
    (ite (and (= @0 16) (= @1 9)) 13
    (ite (and (= @0 4) (= @1 0)) 13
    (ite (and (= @0 19) (= @1 11)) 8
    (ite (and (= @0 3) (= @1 16)) 17
    (ite (and (= @0 18) (= @1 8)) 15
    (ite (and (= @0 17) (= @1 5)) 13
    (ite (and (= @0 15) (= @1 19)) 4
    (ite (and (= @0 15) (= @1 2)) 3
    (ite (and (= @0 6) (= @1 7)) 11
    (ite (and (= @0 4) (= @1 2)) 1
    (ite (and (= @0 7) (= @1 10)) 18
    (ite (and (= @0 1) (= @1 17)) 10
    (ite (and (= @0 13) (= @1 8)) 3
    (ite (and (= @0 2) (= @1 9)) 7
    (ite (and (= @0 12) (= @1 11)) 18
    (ite (and (= @0 13) (= @1 17)) 9
    (ite (and (= @0 14) (= @1 3)) 6
    (ite (and (= @0 9) (= @1 7)) 3
    (ite (and (= @0 4) (= @1 13)) 19
    (ite (and (= @0 8) (= @1 16)) 10
    (ite (and (= @0 12) (= @1 5)) 11
    (ite (and (= @0 14) (= @1 16)) 16
    (ite (and (= @0 0) (= @1 3)) 10
    (ite (and (= @0 5) (= @1 12)) 12
    (ite (and (= @0 11) (= @1 2)) 19
    (ite (and (= @0 4) (= @1 19)) 15
    (ite (and (= @0 0) (= @1 14)) 8
    (ite (and (= @0 16) (= @1 13)) 17
    (ite (and (= @0 17) (= @1 1)) 20
    (ite (and (= @0 9) (= @1 11)) 7
    (ite (and (= @0 6) (= @1 3)) 3
    (ite (and (= @0 15) (= @1 6)) 19
    (ite (and (= @0 7) (= @1 6)) 13
    (ite (and (= @0 6) (= @1 2)) 18
    (ite (and (= @0 5) (= @1 16)) 4
    (ite (and (= @0 18) (= @1 4)) 4
    (ite (and (= @0 14) (= @1 7)) 1
    (ite (and (= @0 15) (= @1 15)) 8
    (ite (and (= @0 14) (= @1 12)) 19
    (ite (and (= @0 19) (= @1 15)) 11
    (ite (and (= @0 3) (= @1 12)) 14
    (ite (and (= @0 19) (= @1 0)) 11
    (ite (and (= @0 2) (= @1 13)) 5
    (ite (and (= @0 13) (= @1 4)) 20
    (ite (and (= @0 1) (= @1 6)) 4
    (ite (and (= @0 11) (= @1 6)) 10
    (ite (and (= @0 11) (= @1 17)) 12
    (ite (and (= @0 10) (= @1 18)) 19
    (ite (and (= @0 12) (= @1 15)) 13
    (ite (and (= @0 4) (= @1 9)) 12
    (ite (and (= @0 12) (= @1 1)) 8
    (ite (and (= @0 15) (= @1 10)) 10
    (ite (and (= @0 19) (= @1 3)) 2
    (ite (and (= @0 11) (= @1 13)) 17
    (ite (and (= @0 17) (= @1 13)) 2
    (ite (and (= @0 16) (= @1 1)) 2
    (ite (and (= @0 12) (= @1 14)) 20
    (ite (and (= @0 6) (= @1 15)) 8
    (ite (and (= @0 5) (= @1 4)) 12
    (ite (and (= @0 8) (= @1 4)) 20
    (ite (and (= @0 7) (= @1 18)) 1
    (ite (and (= @0 12) (= @1 19)) 17
    (ite (and (= @0 13) (= @1 9)) 16
    (ite (and (= @0 18) (= @1 1)) 1
    (ite (and (= @0 16) (= @1 17)) 5
    (ite (and (= @0 1) (= @1 10)) 9
    (ite (and (= @0 0) (= @1 11)) 3
    (ite (and (= @0 3) (= @1 8)) 4
    (ite (and (= @0 13) (= @1 0)) 14
    (ite (and (= @0 9) (= @1 4)) 5
    (ite (and (= @0 9) (= @1 15)) 2
    (ite (and (= @0 8) (= @1 8)) 2
    (ite (and (= @0 6) (= @1 11)) 6
    (ite (and (= @0 10) (= @1 14)) 4
    (ite (and (= @0 2) (= @1 1)) 14
    (ite (and (= @0 18) (= @1 12)) 8
    (ite (and (= @0 3) (= @1 4)) 14
    (ite (and (= @0 17) (= @1 9)) 6
    (ite (and (= @0 15) (= @1 14)) 11
    (ite (and (= @0 19) (= @1 7)) 11
    (ite (and (= @0 16) (= @1 5)) 13
    (ite (and (= @0 8) (= @1 0)) 2
    (ite (and (= @0 7) (= @1 1)) 6
    (ite (and (= @0 5) (= @1 8)) 15
    (ite (and (= @0 18) (= @1 19)) 3
    (ite (and (= @0 3) (= @1 19)) 5
    (ite (and (= @0 2) (= @1 16)) 3
    (ite (and (= @0 13) (= @1 13)) 10
    (ite (and (= @0 1) (= @1 14)) 6
    (ite (and (= @0 0) (= @1 7)) 13
    (ite (and (= @0 18) (= @1 16)) 12
    (ite (and (= @0 11) (= @1 9)) 13
    (ite (and (= @0 10) (= @1 3)) 2
    (ite (and (= @0 10) (= @1 10)) 2
    (ite (and (= @0 2) (= @1 5)) 2
    (ite (and (= @0 0) (= @1 18)) 8
    (ite (and (= @0 9) (= @1 0)) 10
    (ite (and (= @0 7) (= @1 14)) 4
    (ite (and (= @0 9) (= @1 19)) 3
    (ite (and (= @0 18) (= @1 9)) 4
    (ite (and (= @0 17) (= @1 6)) 11
    (ite (and (= @0 15) (= @1 1)) 20
    (ite (and (= @0 17) (= @1 19)) 15
    (ite (and (= @0 4) (= @1 3)) 9
    (ite (and (= @0 8) (= @1 11)) 18
    (ite (and (= @0 1) (= @1 1)) 14
    (ite (and (= @0 16) (= @1 8)) 11
    (ite (and (= @0 3) (= @1 15)) 4
    (ite (and (= @0 4) (= @1 1)) 8
    (ite (and (= @0 19) (= @1 12)) 8
    (ite (and (= @0 8) (= @1 15)) 5
    (ite (and (= @0 0) (= @1 2)) 14
    (ite (and (= @0 9) (= @1 6)) 19
    (ite (and (= @0 14) (= @1 17)) 3
    (ite (and (= @0 5) (= @1 13)) 19
    (ite (and (= @0 11) (= @1 3)) 17
    (ite (and (= @0 12) (= @1 6)) 19
    (ite (and (= @0 4) (= @1 14)) 15
    (ite (and (= @0 4) (= @1 18)) 20
    (ite (and (= @0 7) (= @1 11)) 7
    (ite (and (= @0 1) (= @1 18)) 11
    (ite (and (= @0 13) (= @1 7)) 5
    (ite (and (= @0 2) (= @1 8)) 18
    (ite (and (= @0 12) (= @1 12)) 16
    (ite (and (= @0 14) (= @1 2)) 19
    (ite (and (= @0 13) (= @1 18)) 6
    (ite (and (= @0 6) (= @1 4)) 1
    (ite (and (= @0 15) (= @1 5)) 15
    (ite (and (= @0 7) (= @1 7)) 17
    (ite (and (= @0 6) (= @1 1)) 12
    (ite (and (= @0 5) (= @1 17)) 6
    (ite (and (= @0 18) (= @1 5)) 10
    (ite (and (= @0 17) (= @1 2)) 5
    (ite (and (= @0 16) (= @1 12)) 14
    (ite (and (= @0 6) (= @1 19)) 12
    (ite (and (= @0 1) (= @1 5)) 10
    (ite (and (= @0 8) (= @1 19)) 17
    (ite (and (= @0 11) (= @1 7)) 6
    (ite (and (= @0 9) (= @1 10)) 8
    (ite (and (= @0 10) (= @1 17)) 6
    (ite (and (= @0 12) (= @1 2)) 6
    (ite (and (= @0 4) (= @1 10)) 19
    (ite (and (= @0 11) (= @1 16)) 5
    (ite (and (= @0 12) (= @1 16)) 12
    (ite (and (= @0 14) (= @1 13)) 5
    (ite (and (= @0 15) (= @1 16)) 19
    (ite (and (= @0 14) (= @1 6)) 2
    (ite (and (= @0 6) (= @1 8)) 11
    (ite (and (= @0 13) (= @1 3)) 20
    (ite (and (= @0 2) (= @1 12)) 18
    (ite (and (= @0 3) (= @1 11)) 20
    (ite (and (= @0 19) (= @1 16)) 6
    (ite (and (= @0 5) (= @1 5)) 8
    (ite (and (= @0 8) (= @1 3)) 15
    (ite (and (= @0 6) (= @1 16)) 10
    (ite (and (= @0 7) (= @1 19)) 7
    (ite (and (= @0 9) (= @1 14)) 14
    (ite (and (= @0 19) (= @1 4)) 7
    (ite (and (= @0 15) (= @1 9)) 20
    (ite (and (= @0 16) (= @1 0)) 17
    (ite (and (= @0 17) (= @1 14)) 12
    (ite (and (= @0 3) (= @1 7)) 1
    (ite (and (= @0 11) (= @1 12)) 14
    (ite (and (= @0 9) (= @1 5)) 5
    (ite (and (= @0 8) (= @1 7)) 1
    (ite (and (= @0 6) (= @1 12)) 15
    (ite (and (= @0 10) (= @1 0)) 8
    (ite (and (= @0 13) (= @1 10)) 9
    (ite (and (= @0 4) (= @1 6)) 4
    (ite (and (= @0 18) (= @1 0)) 4
    (ite (and (= @0 0) (= @1 10)) 15
    (ite (and (= @0 0) (= @1 15)) 11
    (ite (and (= @0 16) (= @1 16)) 9
    (ite (and (= @0 1) (= @1 9)) 10
    (ite (and (= @0 4) (= @1 15)) 20
    (ite (and (= @0 7) (= @1 0)) 1
    (ite (and (= @0 19) (= @1 8)) 18
    (ite (and (= @0 16) (= @1 4)) 4
    (ite (and (= @0 7) (= @1 15)) 2
    (ite (and (= @0 10) (= @1 13)) 11
    (ite (and (= @0 3) (= @1 3)) 9
    (ite (and (= @0 2) (= @1 0)) 3
    (ite (and (= @0 18) (= @1 13)) 8
    (ite (and (= @0 17) (= @1 10)) 19
    (ite (and (= @0 15) (= @1 13)) 7
    (ite (and (= @0 9) (= @1 18)) 13
    (ite (and (= @0 10) (= @1 9)) 11
    (ite (and (= @0 2) (= @1 4)) 14
    (ite (and (= @0 11) (= @1 8)) 10
    (ite (and (= @0 0) (= @1 19)) 1
    (ite (and (= @0 9) (= @1 1)) 14
    (ite (and (= @0 10) (= @1 4)) 4
    (ite (and (= @0 5) (= @1 9)) 16
    (ite (and (= @0 2) (= @1 17)) 2
    (ite (and (= @0 18) (= @1 18)) 19
    (ite (and (= @0 0) (= @1 6)) 15
    (ite (and (= @0 13) (= @1 14)) 2
    (ite (and (= @0 1) (= @1 13)) 6
    (ite (and (= @0 18) (= @1 17)) 8
    (ite (and (= @0 17) (= @1 18)) 10
    (ite (and (= @0 13) (= @1 6)) 12
    (ite (and (= @0 1) (= @1 15)) 17
    (ite (and (= @0 12) (= @1 9)) 10
    (ite (and (= @0 14) (= @1 14)) 19
    (ite (and (= @0 2) (= @1 11)) 17
    (ite (and (= @0 13) (= @1 19)) 19
    (ite (and (= @0 14) (= @1 5)) 18
    (ite (and (= @0 3) (= @1 14)) 16
    (ite (and (= @0 0) (= @1 5)) 8
    (ite (and (= @0 9) (= @1 9)) 16
    (ite (and (= @0 12) (= @1 7)) 19
    (ite (and (= @0 11) (= @1 0)) 3
    (ite (and (= @0 5) (= @1 10)) 2
    (ite (and (= @0 19) (= @1 13)) 16
    (ite (and (= @0 1) (= @1 0)) 2
    (ite (and (= @0 15) (= @1 0)) 3
    (ite (and (= @0 8) (= @1 10)) 15
    (ite (and (= @0 16) (= @1 11)) 5
    (ite (and (= @0 2) (= @1 15)) 3
    (ite (and (= @0 18) (= @1 6)) 3
    (ite (and (= @0 17) (= @1 7)) 9
    (ite (and (= @0 4) (= @1 4)) 20
    (ite (and (= @0 5) (= @1 1)) 7
    (ite (and (= @0 7) (= @1 8)) 16
    (ite (and (= @0 6) (= @1 9)) 9
    (ite (and (= @0 14) (= @1 10)) 12
    (ite (and (= @0 12) (= @1 13)) 12
    (ite (and (= @0 14) (= @1 9)) 12
    (ite (and (= @0 3) (= @1 10)) 15
    (ite (and (= @0 13) (= @1 2)) 19
    (ite (and (= @0 19) (= @1 17)) 4
    (ite (and (= @0 19) (= @1 2)) 9
    (ite (and (= @0 8) (= @1 18)) 11
    (ite (and (= @0 11) (= @1 4)) 13
    (ite (and (= @0 5) (= @1 14)) 7
    (ite (and (= @0 1) (= @1 19)) 6
    (ite (and (= @0 1) (= @1 4)) 13
    (ite (and (= @0 4) (= @1 11)) 16
    (ite (and (= @0 12) (= @1 3)) 9
    (ite (and (= @0 10) (= @1 16)) 8
    (ite (and (= @0 11) (= @1 19)) 10
    (ite (and (= @0 9) (= @1 13)) 3
    (ite (and (= @0 18) (= @1 2)) 3
    (ite (and (= @0 6) (= @1 5)) 15
    (ite (and (= @0 7) (= @1 4)) 12
    (ite (and (= @0 15) (= @1 4)) 12
    (ite (and (= @0 15) (= @1 17)) 20
    (ite (and (= @0 17) (= @1 3)) 15
    (ite (and (= @0 16) (= @1 19)) 5
    (ite (and (= @0 6) (= @1 0)) 8
    (ite (and (= @0 4) (= @1 7)) 5
    (ite (and (= @0 12) (= @1 17)) 11
    (ite (and (= @0 11) (= @1 15)) 20
    (ite (and (= @0 13) (= @1 11)) 20
    (ite (and (= @0 0) (= @1 16)) 5
    (ite (and (= @0 0) (= @1 13)) 4
    (ite (and (= @0 1) (= @1 8)) 10
    (ite (and (= @0 17) (= @1 15)) 15
    (ite (and (= @0 16) (= @1 15)) 14
    (ite (and (= @0 17) (= @1 0)) 20
    (ite (and (= @0 5) (= @1 19)) 7
    (ite (and (= @0 9) (= @1 2)) 16
    (ite (and (= @0 3) (= @1 6)) 14
    (ite (and (= @0 6) (= @1 13)) 15
    (ite (and (= @0 10) (= @1 1)) 3
    (ite (and (= @0 8) (= @1 6)) 5
    (ite (and (= @0 9) (= @1 17)) 6
    (ite (and (= @0 18) (= @1 14)) 16
    (ite (and (= @0 0) (= @1 1)) 20
    (ite (and (= @0 15) (= @1 8)) 7
    (ite (and (= @0 7) (= @1 16)) 19
    (ite (and (= @0 16) (= @1 3)) 13
    (ite (and (= @0 5) (= @1 2)) 9
    (ite (and (= @0 19) (= @1 5)) 17
    (ite (and (= @0 6) (= @1 17)) 17
    (ite (and (= @0 8) (= @1 2)) 19
    (ite (and (= @0 2) (= @1 18)) 15
    (ite (and (= @0 3) (= @1 17)) 2
    (ite (and (= @0 14) (= @1 18)) 2
    (ite (and (= @0 0) (= @1 9)) 18
    (ite (and (= @0 1) (= @1 12)) 13
    (ite (and (= @0 2) (= @1 7)) 6
    (ite (and (= @0 13) (= @1 15)) 7
    (ite (and (= @0 14) (= @1 1)) 7
    (ite (and (= @0 10) (= @1 8)) 5
    (ite (and (= @0 11) (= @1 11)) 4
    (ite (and (= @0 10) (= @1 5)) 9
    (ite (and (= @0 7) (= @1 12)) 2
    (ite (and (= @0 17) (= @1 11)) 6
    (ite (and (= @0 3) (= @1 2)) 9
    (ite (and (= @0 2) (= @1 3)) 9
    (ite (and (= @0 10) (= @1 12)) 3
    (ite (and (= @0 18) (= @1 10)) 9
    (ite (and (= @0 15) (= @1 12)) 2
    (ite (and (= @0 4) (= @1 16)) 12
    (ite (and (= @0 19) (= @1 9)) 8
    (ite (and (= @0 16) (= @1 7)) 12
    (ite (and (= @0 7) (= @1 3)) 6
    (ite (and (= @0 5) (= @1 6)) 19
    (ite (and (= @0 8) (= @1 14)) 4
    (ite (and (= @0 0) (= @1 4)) 2
    (ite (and (= @0 10) (= @1 19)) 7
    (ite (and (= @0 9) (= @1 8)) 18
    (ite (and (= @0 12) (= @1 8)) 16
    (ite (and (= @0 5) (= @1 11)) 2
    (ite (and (= @0 11) (= @1 1)) 11
    (ite (and (= @0 1) (= @1 16)) 14
    (ite (and (= @0 13) (= @1 5)) 1
    (ite (and (= @0 17) (= @1 17)) 19
    (ite (and (= @0 7) (= @1 9)) 14
    (ite (and (= @0 14) (= @1 4)) 1
    (ite (and (= @0 12) (= @1 10)) 12
    (ite (and (= @0 3) (= @1 13)) 3
    (ite (and (= @0 2) (= @1 10)) 7
    (ite (and (= @0 18) (= @1 7)) 5
    (ite (and (= @0 17) (= @1 8)) 16
    (ite (and (= @0 5) (= @1 0)) 9
    (ite (and (= @0 4) (= @1 5)) 13
    (ite (and (= @0 19) (= @1 14)) 2
    (ite (and (= @0 14) (= @1 15)) 16
    (ite (and (= @0 16) (= @1 10)) 15
    (ite (and (= @0 1) (= @1 3)) 3
    (ite (and (= @0 10) (= @1 15)) 17
    (ite (and (= @0 4) (= @1 12)) 18
    (ite (and (= @0 12) (= @1 4)) 11
    (ite (and (= @0 8) (= @1 17)) 17
    (ite (and (= @0 11) (= @1 18)) 17
    (ite (and (= @0 11) (= @1 5)) 3
    (ite (and (= @0 6) (= @1 10)) 15
    (ite (and (= @0 14) (= @1 11)) 3
    (ite (and (= @0 14) (= @1 8)) 5
    (ite (and (= @0 3) (= @1 9)) 4
    (ite (and (= @0 2) (= @1 14)) 8
    (ite (and (= @0 19) (= @1 1)) 16
    (ite (and (= @0 19) (= @1 18)) 17
    (ite (and (= @0 13) (= @1 1)) 7
    (ite (and (= @0 7) (= @1 5)) 15
    (ite (and (= @0 6) (= @1 6)) 20
    (ite (and (= @0 15) (= @1 3)) 10
    (ite (and (= @0 16) (= @1 18)) 5
    (ite (and (= @0 17) (= @1 4)) 10
    (ite (and (= @0 15) (= @1 18)) 9
    (ite (and (= @0 5) (= @1 15)) 14
    (ite (and (= @0 9) (= @1 12)) 17
    (ite (and (= @0 16) (= @1 14)) 20
    (ite (and (= @0 18) (= @1 3)) 18
    (ite (and (= @0 3) (= @1 0)) 9
    (ite (and (= @0 3) (= @1 5)) 7
    (ite (and (= @0 5) (= @1 18)) 1
    (ite (and (= @0 8) (= @1 5)) 9
    (ite (and (= @0 10) (= @1 2)) 13
    (ite (and (= @0 6) (= @1 14)) 3
    (ite (and (= @0 10) (= @1 11)) 17
    (ite (and (= @0 9) (= @1 16)) 2
    (ite (and (= @0 9) (= @1 3)) 2
    (ite (and (= @0 4) (= @1 8)) 18
    (ite (and (= @0 12) (= @1 0)) 15
    (ite (and (= @0 13) (= @1 12)) 3
    (ite (and (= @0 12) (= @1 18)) 12
    (ite (and (= @0 1) (= @1 7)) 9
    (ite (and (= @0 0) (= @1 12)) 20
    (ite (and (= @0 0) (= @1 17)) 8
    (ite (and (= @0 17) (= @1 16)) 11
    (ite (and (= @0 5) (= @1 3)) 20
    (ite (and (= @0 8) (= @1 1)) 19
    (ite (and (= @0 16) (= @1 2)) 5
    (ite (and (= @0 19) (= @1 6)) 10
    (ite (and (= @0 7) (= @1 17)) 12
    (ite (and (= @0 6) (= @1 18)) 10
    (ite (and (= @0 11) (= @1 14)) 1
    (ite (and (= @0 15) (= @1 7)) 6
    (ite (and (= @0 0) (= @1 0)) 2
    (ite (and (= @0 14) (= @1 0)) 2
    (ite (and (= @0 10) (= @1 7)) 3
    (ite (and (= @0 13) (= @1 16)) 7
    (ite (and (= @0 2) (= @1 6)) 12
    (ite (and (= @0 8) (= @1 9)) 18
    (ite (and (= @0 11) (= @1 10)) 5
    (ite (and (= @0 10) (= @1 6)) 20
    (ite (and (= @0 7) (= @1 13)) 19
    (ite (and (= @0 3) (= @1 18)) 3
    (ite (and (= @0 2) (= @1 19)) 19
    (ite (and (= @0 19) (= @1 19)) 6
    (ite (and (= @0 5) (= @1 7)) 12
    (ite (and (= @0 14) (= @1 19)) 5
    (ite (and (= @0 1) (= @1 11)) 4
    (ite (and (= @0 0) (= @1 8)) 12
    (ite (and (= @0 18) (= @1 15)) 11
    (ite (and (= @0 19) (= @1 10)) 6
    (ite (and (= @0 4) (= @1 17)) 4
    (ite (and (= @0 7) (= @1 2)) 9
    (ite (and (= @0 16) (= @1 6)) 3
    (ite (and (= @0 8) (= @1 13)) 20
    (ite (and (= @0 2) (= @1 2)) 5
    (ite (and (= @0 17) (= @1 12)) 10
    (ite (and (= @0 3) (= @1 1)) 8
    (ite (and (= @0 15) (= @1 11)) 20
    (ite (and (= @0 18) (= @1 11)) 6
      17)))))))))))))))))))))))))))))))))))))))))))))))))))))))))))))))))))))))))))))))))))))))))))))))))))))))))))))))))))))))))))))))))))))))))))))))))))))))))))))))))))))))))))))))))))))))))))))))))))))))))))))))))))))))))))))))))))))))))))))))))))))))))))))))))))))))))))))))))))))))))))))))))))))))))))))))))))))))))))))))))))))))))))))))))))))))))))))))))))))))))))))))))))))))))))))))))))))))))))))))))
  (define-fun n_18 () Int
    8)
  (define-fun n_19 () Int
    3)
  (define-fun n_16 () Int
    13)
  (define-fun n_17 () Int
    18)
  (define-fun n_14 () Int
    12)
  (define-fun n_15 () Int
    15)
  (define-fun n_0 () Int
    0)
  (define-fun n_12 () Int
    19)
  (define-fun n_13 () Int
    7)
  (define-fun n_10 () Int
    11)
  (define-fun n_11 () Int
    2))
